p cnf 61 232
4 2 0
4 3 0
-2 -3 -4 0
5 1 0
5 -4 0
-1 4 -5 0
7 1 0
7 6 0
-1 -6 -7 0
-8 1 0
-8 7 0
-1 -7 8 0
-9 1 0
-9 -6 0
-1 6 9 0
-8 9 -10 0
8 -9 -10 0
-8 -9 10 0
8 9 10 0
11 5 0
11 10 0
-5 -10 -11 0
-14 -12 0
-14 13 0
12 -13 14 0
-15 12 0
-15 -14 0
-12 14 15 0
-17 6 0
-17 -16 0
-6 16 17 0
18 -13 0
18 -17 0
13 17 -18 0
-19 6 -20 0
19 -6 -20 0
-19 -6 20 0
19 6 20 0
-18 20 -21 0
18 -20 -21 0
-18 -20 21 0
18 20 21 0
-15 -21 -22 0
15 21 -22 0
-15 21 22 0
15 -21 22 0
11 22 -23 0
-11 -22 -23 0
11 -22 23 0
-11 22 23 0
24 -4 0
24 6 0
4 -6 -24 0
-24 -16 -25 0
24 16 -25 0
-24 16 25 0
24 -16 25 0
26 17 0
26 10 0
-17 -10 -26 0
5 13 -27 0
-5 -13 -27 0
5 -13 27 0
-5 13 27 0
-26 27 -28 0
26 -27 -28 0
-26 -27 28 0
26 27 28 0
29 -25 0
29 -28 0
25 28 -29 0
30 -17 0
30 -16 0
17 16 -30 0
31 30 0
31 -10 0
-30 10 -31 0
-29 31 -32 0
29 -31 -32 0
-29 -31 32 0
29 31 32 0
23 -32 -33 0
-23 32 -33 0
23 32 33 0
-23 -32 33 0
-4 -13 -35 0
4 13 -35 0
-4 13 35 0
4 -13 35 0
35 24 -36 0
-35 -24 -36 0
35 -24 36 0
-35 24 36 0
-34 36 -37 0
34 -36 -37 0
-34 -36 37 0
34 36 37 0
38 3 0
38 2 0
-3 -2 -38 0
39 2 0
39 -19 0
-2 19 -39 0
-40 -39 0
-40 3 0
39 -3 40 0
-41 38 0
-41 40 0
-38 -40 41 0
37 41 -42 0
-37 -41 -42 0
37 -41 42 0
-37 41 42 0
30 -35 -43 0
-30 35 -43 0
30 35 43 0
-30 -35 43 0
44 -3 0
44 6 0
3 -6 -44 0
-39 44 -45 0
39 -44 -45 0
-39 -44 45 0
39 44 45 0
-46 -35 0
-46 -35 0
35 46 0
47 -45 0
47 46 0
45 -46 -47 0
39 -8 -48 0
-39 8 -48 0
39 8 48 0
-39 -8 48 0
-47 48 -49 0
47 -48 -49 0
-47 -48 49 0
47 48 49 0
6 -46 -50 0
-6 46 -50 0
6 46 50 0
-6 -46 50 0
49 -50 -51 0
-49 50 -51 0
49 50 51 0
-49 -50 51 0
52 -43 0
52 -51 0
43 51 -52 0
-42 52 -53 0
42 -52 -53 0
-42 -52 53 0
42 52 53 0
55 6 0
55 54 0
-6 -54 -55 0
-16 5 -56 0
16 -5 -56 0
-16 -5 56 0
16 5 56 0
-55 56 -57 0
55 -56 -57 0
-55 -56 57 0
55 56 57 0
58 6 0
58 2 0
-6 -2 -58 0
-57 58 -59 0
57 -58 -59 0
-57 -58 59 0
57 58 59 0
53 59 -60 0
-53 -59 -60 0
53 -59 60 0
-53 59 60 0
61 33 0
61 -60 0
-33 60 -61 0
21 33 60 -52 0
-7 -25 47 44 -11 -16 0
-22 -6 60 -20 -48 15 0
37 -60 0
48 -40 -10 0
-2 -23 -8 51 -13 0
25 38 -26 0
-12 24 22 13 44 -1 0
61 19 0
-28 52 33 0
-35 32 58 51 61 52 0
58 38 -33 -14 -40 1 0
-44 16 0
25 -48 -37 29 0
60 -11 0
24 25 23 37 39 0
-25 34 -40 36 39 0
59 38 0
-35 55 0
45 -16 -25 0
-52 54 -44 -5 0
-15 25 -34 0
42 -7 0
18 6 -60 0
5 29 0
40 47 0
12 34 0
-3 9 14 -32 -56 -11 0
-5 -1 -39 0
30 1 33 0
40 60 -3 48 0
59 51 -57 32 -5 0
-53 0
-27 31 0
-25 -47 -61 32 0
-43 46 0
5 33 7 0
23 48 -6 0
34 10 -8 43 0
-39 52 -19 -54 20 0
34 44 0
39 -29 34 -9 0
60 -27 -19 -4 7 9 0
-55 -51 0
18 -19 0
33 36 0
-38 -52 0
20 -42 12 36 0
7 -48 -5 -38 0
-9 34 32 0
13 -59 -38 0
8 28 -53 25 0
52 33 0
61 0
